p edge 57 158
e 1 2
e 1 5
e 1 12
e 1 15
e 1 38
e 1 49
e 1 53
e 2 17
e 2 20
e 2 31
e 2 33
e 2 37
e 2 51
e 2 54
e 2 57
e 3 4
e 3 13
e 3 14
e 3 20
e 3 28
e 3 30
e 3 36
e 3 37
e 3 45
e 3 53
e 4 11
e 4 12
e 4 17
e 4 21
e 4 30
e 5 7
e 5 28
e 6 10
e 6 16
e 6 17
e 6 26
e 6 27
e 6 40
e 7 9
e 7 13
e 7 21
e 7 22
e 7 26
e 7 42
e 8 10
e 8 37
e 8 38
e 8 47
e 8 52
e 9 15
e 9 29
e 9 31
e 9 33
e 9 34
e 9 36
e 9 43
e 9 44
e 10 12
e 10 25
e 10 31
e 11 27
e 11 29
e 11 46
e 11 51
e 11 54
e 11 55
e 12 15
e 12 17
e 12 24
e 12 41
e 12 45
e 12 49
e 12 51
e 12 57
e 13 20
e 13 41
e 13 45
e 14 20
e 14 39
e 14 43
e 14 44
e 14 55
e 15 24
e 15 53
e 16 21
e 16 22
e 16 32
e 16 41
e 16 44
e 17 27
e 17 34
e 18 25
e 18 29
e 18 31
e 18 36
e 18 45
e 18 49
e 18 50
e 19 24
e 19 51
e 20 24
e 20 36
e 20 38
e 20 43
e 20 48
e 20 54
e 22 38
e 22 42
e 23 25
e 23 30
e 23 33
e 23 38
e 23 39
e 23 45
e 24 31
e 24 33
e 24 34
e 24 55
e 25 40
e 26 30
e 26 32
e 26 34
e 26 35
e 26 39
e 27 32
e 27 36
e 28 45
e 29 41
e 30 40
e 30 44
e 30 48
e 30 51
e 31 57
e 32 48
e 34 43
e 34 50
e 35 41
e 36 40
e 36 42
e 36 44
e 36 46
e 36 56
e 37 42
e 38 40
e 38 57
e 39 50
e 39 55
e 42 44
e 42 45
e 43 48
e 44 50
e 45 54
e 46 55
e 47 49
e 49 54
e 50 53
e 51 52
e 52 55
